c uprop, v00.0, 
c reading from data/prog71.c.cnf
c done reading: 0.00312
p cnf 158 742
-71 -92 0
-71 -88 0
71 88 92 0
-65 88 92 0
-65 -88 -92 0
65 88 -92 0
65 -88 92 0
71 -83 0
-81 -83 0
-71 81 83 0
-71 -76 81 0
71 -76 -81 0
71 76 81 0
-71 76 -81 0
-72 83 0
-69 -72 0
69 72 -83 0
-67 69 -83 0
-67 -69 83 0
67 69 83 0
67 -69 -83 0
-66 72 0
-63 -66 0
63 66 -72 0
63 -72 -90 0
-63 72 -90 0
63 72 90 0
-63 -72 90 0
66 -94 0
-85 -94 0
-66 85 94 0
-66 85 -95 0
66 -85 -95 0
66 85 95 0
-66 -85 95 0
94 -96 0
-78 -96 0
78 -94 96 0
78 -94 -97 0
-78 94 -97 0
78 94 97 0
-78 -94 97 0
96 -98 0
-74 -98 0
74 -96 98 0
74 -96 -99 0
-74 96 -99 0
74 96 99 0
-74 -96 99 0
-92 -100 0
-88 -100 0
88 92 100 0
88 92 -101 0
-88 -92 -101 0
88 -92 101 0
-88 92 101 0
100 -102 0
-81 -102 0
81 -100 102 0
81 -100 -103 0
-81 100 -103 0
81 100 103 0
-81 -100 103 0
102 -104 0
-69 -104 0
69 -102 104 0
69 -102 -105 0
-69 102 -105 0
69 102 105 0
-69 -102 105 0
104 -106 0
-63 -106 0
63 -104 106 0
-61 63 -104 0
-61 -63 104 0
61 63 104 0
61 -63 -104 0
-60 106 0
-60 -85 0
60 85 -106 0
-59 85 -106 0
-59 -85 106 0
59 85 106 0
59 -85 -106 0
-58 60 0
-58 -78 0
58 -60 78 0
-57 -60 78 0
-57 60 -78 0
57 60 78 0
57 -60 -78 0
-56 58 0
-56 -74 0
56 -58 74 0
-58 74 -91 0
58 -74 -91 0
58 74 91 0
-58 -74 91 0
-54 -87 0
-51 -87 0
51 54 87 0
51 54 -80 0
-51 -54 -80 0
51 -54 80 0
-51 54 80 0
-68 87 0
-48 -68 0
48 68 -87 0
48 -62 -87 0
-48 -62 87 0
48 62 87 0
-48 62 -87 0
68 -84 0
-45 -84 0
45 -68 84 0
45 -68 -77 0
-45 68 -77 0
45 68 77 0
-45 -68 77 0
-73 84 0
-42 -73 0
42 73 -84 0
42 -53 -84 0
-42 -53 84 0
42 53 84 0
-42 53 -84 0
-50 73 0
-39 -50 0
39 50 -73 0
39 -47 -73 0
-39 -47 73 0
39 47 73 0
-39 47 -73 0
-44 50 0
-36 -44 0
36 44 -50 0
36 -41 -50 0
-36 -41 50 0
36 41 50 0
-36 41 -50 0
-38 44 0
-33 -38 0
33 38 -44 0
33 -35 -44 0
-33 -35 44 0
33 35 44 0
-33 35 -44 0
-32 51 0
-32 54 0
32 -51 -54 0
-51 -54 -107 0
51 54 -107 0
-51 54 107 0
51 -54 107 0
-48 -51 108 0
-32 -48 108 0
-32 -51 108 0
48 51 -108 0
32 48 -108 0
32 51 -108 0
48 -108 -109 0
51 -108 -109 0
32 -108 -109 0
-48 108 109 0
-51 108 109 0
-32 108 109 0
-32 -48 -51 109 0
32 48 51 -109 0
-45 -48 110 0
-45 -108 110 0
-48 -108 110 0
45 48 -110 0
45 108 -110 0
48 108 -110 0
45 -110 -111 0
48 -110 -111 0
108 -110 -111 0
-45 110 111 0
-48 110 111 0
-108 110 111 0
-45 -48 -108 111 0
45 48 108 -111 0
-42 -45 112 0
-42 -110 112 0
-45 -110 112 0
42 45 -112 0
42 110 -112 0
45 110 -112 0
42 -112 -113 0
45 -112 -113 0
110 -112 -113 0
-42 112 113 0
-45 112 113 0
-110 112 113 0
-42 -45 -110 113 0
42 45 110 -113 0
-39 -42 114 0
-39 -112 114 0
-42 -112 114 0
39 42 -114 0
39 112 -114 0
42 112 -114 0
39 -114 -115 0
42 -114 -115 0
112 -114 -115 0
-39 114 115 0
-42 114 115 0
-112 114 115 0
-39 -42 -112 115 0
39 42 112 -115 0
-36 -39 116 0
-36 -114 116 0
-39 -114 116 0
36 39 -116 0
36 114 -116 0
39 114 -116 0
36 -116 -117 0
39 -116 -117 0
114 -116 -117 0
-36 116 117 0
-39 116 117 0
-114 116 117 0
-36 -39 -114 117 0
36 39 114 -117 0
-33 -36 118 0
-33 -116 118 0
-36 -116 118 0
33 36 -118 0
33 116 -118 0
36 116 -118 0
33 -118 -119 0
36 -118 -119 0
116 -118 -119 0
-33 118 119 0
-36 118 119 0
-116 118 119 0
-33 -36 -116 119 0
33 36 116 -119 0
33 -120 0
118 -120 0
-33 -118 120 0
-33 -118 -121 0
33 118 -121 0
-33 118 121 0
33 -118 121 0
109 -122 0
54 -122 0
-54 -109 122 0
-54 -109 -123 0
54 109 -123 0
54 -109 123 0
-54 109 123 0
-51 -111 124 0
-111 -122 124 0
-51 -122 124 0
51 111 -124 0
111 122 -124 0
51 122 -124 0
111 -124 -125 0
51 -124 -125 0
122 -124 -125 0
-111 124 125 0
-51 124 125 0
-122 124 125 0
-51 -111 -122 125 0
51 111 122 -125 0
-48 -113 126 0
-113 -124 126 0
-48 -124 126 0
48 113 -126 0
113 124 -126 0
48 124 -126 0
113 -126 -127 0
48 -126 -127 0
124 -126 -127 0
-113 126 127 0
-48 126 127 0
-124 126 127 0
-48 -113 -124 127 0
48 113 124 -127 0
-45 -115 128 0
-115 -126 128 0
-45 -126 128 0
45 115 -128 0
115 126 -128 0
45 126 -128 0
115 -128 -129 0
45 -128 -129 0
126 -128 -129 0
-115 128 129 0
-45 128 129 0
-126 128 129 0
-45 -115 -126 129 0
45 115 126 -129 0
-42 -117 130 0
-117 -128 130 0
-42 -128 130 0
42 117 -130 0
117 128 -130 0
42 128 -130 0
117 -130 -131 0
42 -130 -131 0
128 -130 -131 0
-117 130 131 0
-42 130 131 0
-128 130 131 0
-42 -117 -128 131 0
42 117 128 -131 0
-39 -119 132 0
-119 -130 132 0
-39 -130 132 0
39 119 -132 0
119 130 -132 0
39 130 -132 0
119 -132 -133 0
39 -132 -133 0
130 -132 -133 0
-119 132 133 0
-39 132 133 0
-130 132 133 0
-39 -119 -130 133 0
39 119 130 -133 0
-36 -121 134 0
-121 -132 134 0
-36 -132 134 0
36 121 -134 0
121 132 -134 0
36 132 -134 0
121 -134 -135 0
36 -134 -135 0
132 -134 -135 0
-121 134 135 0
-36 134 135 0
-132 134 135 0
-36 -121 -132 135 0
36 121 132 -135 0
-33 -120 136 0
-120 -134 136 0
-33 -134 136 0
33 120 -136 0
120 134 -136 0
33 134 -136 0
120 -136 -137 0
33 -136 -137 0
134 -136 -137 0
-120 136 137 0
-33 136 137 0
-134 136 137 0
-33 -120 -134 137 0
33 120 134 -137 0
125 -138 0
54 -138 0
-54 -125 138 0
-54 -125 -139 0
54 125 -139 0
54 -125 139 0
-54 125 139 0
-51 -127 140 0
-127 -138 140 0
-51 -138 140 0
51 127 -140 0
127 138 -140 0
51 138 -140 0
127 -140 -141 0
51 -140 -141 0
138 -140 -141 0
-127 140 141 0
-51 140 141 0
-138 140 141 0
-51 -127 -138 141 0
51 127 138 -141 0
-48 -129 142 0
-129 -140 142 0
-48 -140 142 0
48 129 -142 0
129 140 -142 0
48 140 -142 0
129 -142 -143 0
48 -142 -143 0
140 -142 -143 0
-129 142 143 0
-48 142 143 0
-140 142 143 0
-48 -129 -140 143 0
48 129 140 -143 0
-45 -131 144 0
-131 -142 144 0
-45 -142 144 0
45 131 -144 0
131 142 -144 0
45 142 -144 0
131 -144 -145 0
45 -144 -145 0
142 -144 -145 0
-131 144 145 0
-45 144 145 0
-142 144 145 0
-45 -131 -142 145 0
45 131 142 -145 0
-42 -133 146 0
-133 -144 146 0
-42 -144 146 0
42 133 -146 0
133 144 -146 0
42 144 -146 0
133 -146 -147 0
42 -146 -147 0
144 -146 -147 0
-133 146 147 0
-42 146 147 0
-144 146 147 0
-42 -133 -144 147 0
42 133 144 -147 0
-39 -135 148 0
-135 -146 148 0
-39 -146 148 0
39 135 -148 0
135 146 -148 0
39 146 -148 0
135 -148 -149 0
39 -148 -149 0
146 -148 -149 0
-135 148 149 0
-39 148 149 0
-146 148 149 0
-39 -135 -146 149 0
39 135 146 -149 0
-36 -137 150 0
-137 -148 150 0
-36 -148 150 0
36 137 -150 0
137 148 -150 0
36 148 -150 0
137 -150 -151 0
36 -150 -151 0
148 -150 -151 0
-137 150 151 0
-36 150 151 0
-148 150 151 0
-36 -137 -148 151 0
36 137 148 -151 0
-33 -136 152 0
-136 -150 152 0
-33 -150 152 0
33 136 -152 0
136 150 -152 0
33 150 -152 0
136 -152 -153 0
33 -152 -153 0
150 -152 -153 0
-136 152 153 0
-33 152 153 0
-150 152 153 0
-33 -136 -150 153 0
33 136 150 -153 0
141 -154 0
54 -154 0
-54 -141 154 0
-54 -141 -155 0
54 141 -155 0
54 -141 155 0
-54 141 155 0
-51 -143 156 0
-143 -154 156 0
-51 -154 156 0
51 143 -156 0
143 154 -156 0
51 154 -156 0
143 -156 -157 0
51 -156 -157 0
154 -156 -157 0
-143 156 157 0
-51 156 157 0
-154 156 157 0
-51 -143 -154 157 0
51 143 154 -157 0
-48 -145 158 0
-145 -156 158 0
-48 -156 158 0
48 145 -158 0
145 156 -158 0
48 156 -158 0
-93 145 -158 0
48 -93 -158 0
-93 156 -158 0
93 -145 158 0
-48 93 158 0
93 -156 158 0
-48 93 -145 -156 0
48 -93 145 156 0
-45 89 -147 0
89 -147 -158 0
-45 89 -158 0
45 -89 147 0
-89 147 158 0
45 -89 158 0
-82 -89 147 0
45 -82 -89 0
-82 -89 158 0
82 89 -147 0
-45 82 89 0
82 89 -158 0
-45 82 -147 -158 0
45 -82 147 158 0
-42 70 -149 0
70 -89 -149 0
-42 70 -89 0
42 -70 149 0
-70 89 149 0
42 -70 89 0
-64 -70 149 0
42 -64 -70 0
-64 -70 89 0
64 70 -149 0
-42 64 70 0
64 70 -89 0
-42 64 -89 -149 0
42 -64 89 149 0
-39 86 -151 0
-70 86 -151 0
-39 -70 86 0
39 -86 151 0
70 -86 151 0
39 70 -86 0
-79 -86 151 0
39 -79 -86 0
70 -79 -86 0
79 86 -151 0
-39 79 86 0
-70 79 86 0
-39 -70 79 -151 0
39 70 -79 151 0
-36 75 -153 0
75 -86 -153 0
-36 75 -86 0
36 -75 153 0
-75 86 153 0
36 -75 86 0
-55 -75 153 0
36 -55 -75 0
-55 -75 86 0
55 75 -153 0
-36 55 75 0
55 75 -86 0
-36 55 -86 -153 0
36 -55 86 153 0
-33 52 -152 0
52 -75 -152 0
-33 52 -75 0
33 -52 152 0
-52 75 152 0
33 -52 75 0
-49 -52 152 0
33 -49 -52 0
-49 -52 75 0
49 52 -152 0
-33 49 52 0
49 52 -75 0
-33 49 -75 -152 0
33 -49 75 152 0
-46 -54 0
-46 -107 0
46 54 107 0
-43 54 107 0
-43 -54 -107 0
43 -54 107 0
43 54 -107 0
-40 46 0
-40 -123 0
40 -46 123 0
-37 -46 123 0
-37 46 -123 0
37 46 123 0
37 -46 -123 0
-34 40 0
-34 -139 0
34 -40 139 0
-31 -40 139 0
-31 40 -139 0
31 40 139 0
31 -40 -139 0
-30 34 0
-30 -155 0
30 -34 155 0
-29 -34 155 0
-29 34 -155 0
29 34 155 0
29 -34 -155 0
-28 30 0
-28 -157 0
28 -30 157 0
-27 -30 157 0
-27 30 -157 0
27 30 157 0
27 -30 -157 0
-26 28 0
-26 -93 0
26 -28 93 0
-25 -28 93 0
-25 28 -93 0
25 28 93 0
25 -28 -93 0
-24 26 0
-24 -82 0
24 -26 82 0
-23 -26 82 0
-23 26 -82 0
23 26 82 0
23 -26 -82 0
-22 24 0
-22 -64 0
22 -24 64 0
-21 -24 64 0
-21 24 -64 0
21 24 64 0
21 -24 -64 0
-20 22 0
-20 -79 0
20 -22 79 0
-19 -22 79 0
-19 22 -79 0
19 22 79 0
19 -22 -79 0
-18 20 0
-18 -55 0
18 -20 55 0
-17 -20 55 0
-17 20 -55 0
17 20 55 0
17 -20 -55 0
-16 18 0
-16 -49 0
16 -18 49 0
-15 -18 49 0
-15 18 -49 0
15 18 49 0
15 -18 -49 0
-14 16 0
-14 -52 0
14 -16 52 0
-13 -16 52 0
-13 16 -52 0
13 16 52 0
13 -16 -52 0
-12 92 0
-12 54 0
12 -54 -92 0
-54 -92 0
54 92 0
11 -88 -107 0
11 -12 -88 0
11 -12 -107 0
-11 88 107 0
-11 12 88 0
-11 12 107 0
-11 88 0
-11 107 0
-11 12 0
12 88 107 0
10 -81 -123 0
10 -11 -81 0
10 -11 -123 0
-10 81 123 0
-10 11 81 0
-10 11 123 0
-10 81 0
-10 123 0
-10 11 0
11 81 123 0
9 -69 -139 0
9 -10 -69 0
9 -10 -139 0
-9 69 139 0
-9 10 69 0
-9 10 139 0
9 -69 0
9 -139 0
9 -10 0
-10 -69 -139 0
8 -63 -155 0
8 -9 -63 0
8 -9 -155 0
-8 63 155 0
-8 9 63 0
-8 9 155 0
8 -63 0
8 -155 0
8 -9 0
-9 -63 -155 0
7 -85 -157 0
7 -8 -85 0
7 -8 -157 0
-7 85 157 0
-7 8 85 0
-7 8 157 0
-7 85 0
-7 157 0
-7 8 0
8 85 157 0
6 -78 -93 0
6 -7 -78 0
6 -7 -93 0
-6 78 93 0
-6 7 78 0
-6 7 93 0
6 -78 0
6 -93 0
6 -7 0
-7 -78 -93 0
5 -74 -82 0
5 -6 -74 0
5 -6 -82 0
-5 74 82 0
-5 6 74 0
-5 6 82 0
5 -74 0
5 -82 0
5 -6 0
-6 -74 -82 0
-4 64 0
-4 5 0
4 -5 -64 0
5 -64 0
-5 64 0
-3 79 0
-3 4 0
3 -4 -79 0
4 -79 0
-4 79 0
-2 55 0
-2 3 0
2 -3 -55 0
3 -55 0
-3 55 0
-1 49 0
-1 2 0
1 -2 -49 0
2 -49 0
-2 49 0
-1 -52 0
1 -52 0
-1 52 0
